POSCAR file written by OVITO Basic 3.9.1
1
4.26 0.0 0.0
0.0 2.45951 0.0
0.0 0.0 20.0
C 
4 
Cartesian
0.0 0.0 10.0
0.71 1.22976 10.0
2.13 1.22976 10.0
2.84 0.0 10.0
